robust/generate/spp_dkp_Lefebvre_et_al_2026/src/shortest_path_7_1.kp
43
168

[0.57 3.01 0.66 1.19 1.62 4.25 3.29 2.67 0.14 3.63 1.95 3.96 1.26 0.28 4.28 1.09 2.0 1.56 0.38 4.17 4.19 4.8 1.9 4.72 2.2 3.31 0.41 4.43 1.47 1.3 0.03 2.68 2.35 3.14]

[58 35 35 51 73 49 30 85 39 82 92 58 4 58 90 76 8 95 57 67 18 96 70 28 55 24 95 11 95 24 3 77 68 51]
