robust/generate/spp_dkp_Lefebvre_et_al_2026/src/shortest_path_7_1.lp
\ Model sp_7_1
\ LP format - for model browsing. Use MPS format to capture full model detail.
\ Signature: 0xc8ba32e33faaac64
Minimize
  26.93 y[0,2] + 65.19 y[0,3] + 23.41 y[0,5] + 76.9 y[0,6] + 80.53 y[1,2]
   + 43.68 y[1,3] + 4 y[1,4] + 36.4 y[1,6] + 26.93 y[2,0] + 80.53 y[2,1]
   + 38.95 y[2,3] + 82.49 y[2,4] + 6.08 y[2,5] + 58.14 y[2,6]
   + 65.19 y[3,0] + 43.68 y[3,1] + 38.95 y[3,2] + 44.94 y[3,4]
   + 44.2 y[3,5] + 36.4 y[3,6] + 4 y[4,1] + 82.49 y[4,2] + 44.94 y[4,3]
   + 40.16 y[4,6] + 23.41 y[5,0] + 6.08 y[5,2] + 44.2 y[5,3] + 64.2 y[5,6]
   + 76.9 y[6,0] + 36.4 y[6,1] + 58.14 y[6,2] + 36.4 y[6,3] + 40.16 y[6,4]
   + 64.2 y[6,5] + 2.693 r[0,2] + 6.519 r[0,3] + 2.341 r[0,5] + 7.69 r[0,6]
   + 8.053 r[1,2] + 4.368 r[1,3] + 0.4 r[1,4] + 3.64 r[1,6] + 2.693 r[2,0]
   + 8.053 r[2,1] + 3.895 r[2,3] + 8.249 r[2,4] + 0.608 r[2,5]
   + 5.814 r[2,6] + 6.519 r[3,0] + 4.368 r[3,1] + 3.895 r[3,2]
   + 4.494 r[3,4] + 4.42 r[3,5] + 3.64 r[3,6] + 0.4 r[4,1] + 8.249 r[4,2]
   + 4.494 r[4,3] + 4.016 r[4,6] + 2.341 r[5,0] + 0.608 r[5,2]
   + 4.42 r[5,3] + 6.42 r[5,6] + 7.69 r[6,0] + 3.64 r[6,1] + 5.814 r[6,2]
   + 3.64 r[6,3] + 4.016 r[6,4] + 6.42 r[6,5]
Subject To
 flow_cons_inner_nodes[1]: - y[1,2] - y[1,3] - y[1,4] - y[1,6] + y[2,1]
   + y[3,1] + y[4,1] + y[6,1] = 0
 flow_cons_inner_nodes[2]: y[0,2] + y[1,2] - y[2,0] - y[2,1] - y[2,3]
   - y[2,4] - y[2,5] - y[2,6] + y[3,2] + y[4,2] + y[5,2] + y[6,2] = 0
 flow_cons_inner_nodes[3]: y[0,3] + y[1,3] + y[2,3] - y[3,0] - y[3,1]
   - y[3,2] - y[3,4] - y[3,5] - y[3,6] + y[4,3] + y[5,3] + y[6,3] = 0
 flow_cons_inner_nodes[5]: y[0,5] + y[2,5] + y[3,5] - y[5,0] - y[5,2]
   - y[5,3] - y[5,6] + y[6,5] = 0
 flow_cons_inner_nodes[6]: y[0,6] + y[1,6] + y[2,6] + y[3,6] + y[4,6]
   + y[5,6] - y[6,0] - y[6,1] - y[6,2] - y[6,3] - y[6,4] - y[6,5] = 0
 flow_cons_source: y[0,2] + y[0,3] + y[0,5] + y[0,6] - y[2,0] - y[3,0]
   - y[5,0] - y[6,0] = 1
 flow_cons_target: y[1,4] + y[2,4] + y[3,4] - y[4,1] - y[4,2] - y[4,3]
   - y[4,6] + y[6,4] = 1
 primal_lower: - 0.57 y[0,2] - 3.01 y[0,3] - 0.66 y[0,5] - 1.19 y[0,6]
   - 1.62 y[1,2] - 4.25 y[1,3] - 3.29 y[1,4] - 2.67 y[1,6] - 0.14 y[2,0]
   - 3.63 y[2,1] - 1.95 y[2,3] - 3.96 y[2,4] - 1.26 y[2,5] - 0.28 y[2,6]
   - 4.28 y[3,0] - 1.09 y[3,1] - 2 y[3,2] - 1.56 y[3,4] - 0.38 y[3,5]
   - 4.17 y[3,6] - 4.19 y[4,1] - 4.8 y[4,2] - 1.9 y[4,3] - 4.72 y[4,6]
   - 2.2 y[5,0] - 3.31 y[5,2] - 0.41 y[5,3] - 4.43 y[5,6] - 1.47 y[6,0]
   - 1.3 y[6,1] - 0.03 y[6,2] - 2.68 y[6,3] - 2.35 y[6,4] - 3.14 y[6,5]
   + 58 u[0,2] + 35 u[0,3] + 35 u[0,5] + 51 u[0,6] + 73 u[1,2] + 49 u[1,3]
   + 30 u[1,4] + 85 u[1,6] + 39 u[2,0] + 82 u[2,1] + 92 u[2,3] + 58 u[2,4]
   + 4 u[2,5] + 58 u[2,6] + 90 u[3,0] + 76 u[3,1] + 8 u[3,2] + 95 u[3,4]
   + 57 u[3,5] + 67 u[3,6] + 18 u[4,1] + 96 u[4,2] + 70 u[4,3] + 28 u[4,6]
   + 55 u[5,0] + 24 u[5,2] + 95 u[5,3] + 11 u[5,6] + 95 u[6,0] + 24 u[6,1]
   + 3 u[6,2] + 77 u[6,3] + 68 u[6,4] + 51 u[6,5] <= 168
 mccormick1[0,2]: - u[0,2] + r[0,2] <= 0
 mccormick1[0,3]: - u[0,3] + r[0,3] <= 0
 mccormick1[0,5]: - u[0,5] + r[0,5] <= 0
 mccormick1[0,6]: - u[0,6] + r[0,6] <= 0
 mccormick1[1,2]: - u[1,2] + r[1,2] <= 0
 mccormick1[1,3]: - u[1,3] + r[1,3] <= 0
 mccormick1[1,4]: - u[1,4] + r[1,4] <= 0
 mccormick1[1,6]: - u[1,6] + r[1,6] <= 0
 mccormick1[2,0]: - u[2,0] + r[2,0] <= 0
 mccormick1[2,1]: - u[2,1] + r[2,1] <= 0
 mccormick1[2,3]: - u[2,3] + r[2,3] <= 0
 mccormick1[2,4]: - u[2,4] + r[2,4] <= 0
 mccormick1[2,5]: - u[2,5] + r[2,5] <= 0
 mccormick1[2,6]: - u[2,6] + r[2,6] <= 0
 mccormick1[3,0]: - u[3,0] + r[3,0] <= 0
 mccormick1[3,1]: - u[3,1] + r[3,1] <= 0
 mccormick1[3,2]: - u[3,2] + r[3,2] <= 0
 mccormick1[3,4]: - u[3,4] + r[3,4] <= 0
 mccormick1[3,5]: - u[3,5] + r[3,5] <= 0
 mccormick1[3,6]: - u[3,6] + r[3,6] <= 0
 mccormick1[4,1]: - u[4,1] + r[4,1] <= 0
 mccormick1[4,2]: - u[4,2] + r[4,2] <= 0
 mccormick1[4,3]: - u[4,3] + r[4,3] <= 0
 mccormick1[4,6]: - u[4,6] + r[4,6] <= 0
 mccormick1[5,0]: - u[5,0] + r[5,0] <= 0
 mccormick1[5,2]: - u[5,2] + r[5,2] <= 0
 mccormick1[5,3]: - u[5,3] + r[5,3] <= 0
 mccormick1[5,6]: - u[5,6] + r[5,6] <= 0
 mccormick1[6,0]: - u[6,0] + r[6,0] <= 0
 mccormick1[6,1]: - u[6,1] + r[6,1] <= 0
 mccormick1[6,2]: - u[6,2] + r[6,2] <= 0
 mccormick1[6,3]: - u[6,3] + r[6,3] <= 0
 mccormick1[6,4]: - u[6,4] + r[6,4] <= 0
 mccormick1[6,5]: - u[6,5] + r[6,5] <= 0
 mccormick2[0,2]: - y[0,2] + r[0,2] <= 0
 mccormick2[0,3]: - y[0,3] + r[0,3] <= 0
 mccormick2[0,5]: - y[0,5] + r[0,5] <= 0
 mccormick2[0,6]: - y[0,6] + r[0,6] <= 0
 mccormick2[1,2]: - y[1,2] + r[1,2] <= 0
 mccormick2[1,3]: - y[1,3] + r[1,3] <= 0
 mccormick2[1,4]: - y[1,4] + r[1,4] <= 0
 mccormick2[1,6]: - y[1,6] + r[1,6] <= 0
 mccormick2[2,0]: - y[2,0] + r[2,0] <= 0
 mccormick2[2,1]: - y[2,1] + r[2,1] <= 0
 mccormick2[2,3]: - y[2,3] + r[2,3] <= 0
 mccormick2[2,4]: - y[2,4] + r[2,4] <= 0
 mccormick2[2,5]: - y[2,5] + r[2,5] <= 0
 mccormick2[2,6]: - y[2,6] + r[2,6] <= 0
 mccormick2[3,0]: - y[3,0] + r[3,0] <= 0
 mccormick2[3,1]: - y[3,1] + r[3,1] <= 0
 mccormick2[3,2]: - y[3,2] + r[3,2] <= 0
 mccormick2[3,4]: - y[3,4] + r[3,4] <= 0
 mccormick2[3,5]: - y[3,5] + r[3,5] <= 0
 mccormick2[3,6]: - y[3,6] + r[3,6] <= 0
 mccormick2[4,1]: - y[4,1] + r[4,1] <= 0
 mccormick2[4,2]: - y[4,2] + r[4,2] <= 0
 mccormick2[4,3]: - y[4,3] + r[4,3] <= 0
 mccormick2[4,6]: - y[4,6] + r[4,6] <= 0
 mccormick2[5,0]: - y[5,0] + r[5,0] <= 0
 mccormick2[5,2]: - y[5,2] + r[5,2] <= 0
 mccormick2[5,3]: - y[5,3] + r[5,3] <= 0
 mccormick2[5,6]: - y[5,6] + r[5,6] <= 0
 mccormick2[6,0]: - y[6,0] + r[6,0] <= 0
 mccormick2[6,1]: - y[6,1] + r[6,1] <= 0
 mccormick2[6,2]: - y[6,2] + r[6,2] <= 0
 mccormick2[6,3]: - y[6,3] + r[6,3] <= 0
 mccormick2[6,4]: - y[6,4] + r[6,4] <= 0
 mccormick2[6,5]: - y[6,5] + r[6,5] <= 0
 mccormick3[0,2]: - y[0,2] - u[0,2] + r[0,2] >= -1
 mccormick3[0,3]: - y[0,3] - u[0,3] + r[0,3] >= -1
 mccormick3[0,5]: - y[0,5] - u[0,5] + r[0,5] >= -1
 mccormick3[0,6]: - y[0,6] - u[0,6] + r[0,6] >= -1
 mccormick3[1,2]: - y[1,2] - u[1,2] + r[1,2] >= -1
 mccormick3[1,3]: - y[1,3] - u[1,3] + r[1,3] >= -1
 mccormick3[1,4]: - y[1,4] - u[1,4] + r[1,4] >= -1
 mccormick3[1,6]: - y[1,6] - u[1,6] + r[1,6] >= -1
 mccormick3[2,0]: - y[2,0] - u[2,0] + r[2,0] >= -1
 mccormick3[2,1]: - y[2,1] - u[2,1] + r[2,1] >= -1
 mccormick3[2,3]: - y[2,3] - u[2,3] + r[2,3] >= -1
 mccormick3[2,4]: - y[2,4] - u[2,4] + r[2,4] >= -1
 mccormick3[2,5]: - y[2,5] - u[2,5] + r[2,5] >= -1
 mccormick3[2,6]: - y[2,6] - u[2,6] + r[2,6] >= -1
 mccormick3[3,0]: - y[3,0] - u[3,0] + r[3,0] >= -1
 mccormick3[3,1]: - y[3,1] - u[3,1] + r[3,1] >= -1
 mccormick3[3,2]: - y[3,2] - u[3,2] + r[3,2] >= -1
 mccormick3[3,4]: - y[3,4] - u[3,4] + r[3,4] >= -1
 mccormick3[3,5]: - y[3,5] - u[3,5] + r[3,5] >= -1
 mccormick3[3,6]: - y[3,6] - u[3,6] + r[3,6] >= -1
 mccormick3[4,1]: - y[4,1] - u[4,1] + r[4,1] >= -1
 mccormick3[4,2]: - y[4,2] - u[4,2] + r[4,2] >= -1
 mccormick3[4,3]: - y[4,3] - u[4,3] + r[4,3] >= -1
 mccormick3[4,6]: - y[4,6] - u[4,6] + r[4,6] >= -1
 mccormick3[5,0]: - y[5,0] - u[5,0] + r[5,0] >= -1
 mccormick3[5,2]: - y[5,2] - u[5,2] + r[5,2] >= -1
 mccormick3[5,3]: - y[5,3] - u[5,3] + r[5,3] >= -1
 mccormick3[5,6]: - y[5,6] - u[5,6] + r[5,6] >= -1
 mccormick3[6,0]: - y[6,0] - u[6,0] + r[6,0] >= -1
 mccormick3[6,1]: - y[6,1] - u[6,1] + r[6,1] >= -1
 mccormick3[6,2]: - y[6,2] - u[6,2] + r[6,2] >= -1
 mccormick3[6,3]: - y[6,3] - u[6,3] + r[6,3] >= -1
 mccormick3[6,4]: - y[6,4] - u[6,4] + r[6,4] >= -1
 mccormick3[6,5]: - y[6,5] - u[6,5] + r[6,5] >= -1
Bounds
Binaries
 y[0,2] y[0,3] y[0,5] y[0,6] y[1,2] y[1,3] y[1,4] y[1,6] y[2,0] y[2,1]
 y[2,3] y[2,4] y[2,5] y[2,6] y[3,0] y[3,1] y[3,2] y[3,4] y[3,5] y[3,6]
 y[4,1] y[4,2] y[4,3] y[4,6] y[5,0] y[5,2] y[5,3] y[5,6] y[6,0] y[6,1]
 y[6,2] y[6,3] y[6,4] y[6,5] u[0,2] u[0,3] u[0,5] u[0,6] u[1,2] u[1,3]
 u[1,4] u[1,6] u[2,0] u[2,1] u[2,3] u[2,4] u[2,5] u[2,6] u[3,0] u[3,1]
 u[3,2] u[3,4] u[3,5] u[3,6] u[4,1] u[4,2] u[4,3] u[4,6] u[5,0] u[5,2]
 u[5,3] u[5,6] u[6,0] u[6,1] u[6,2] u[6,3] u[6,4] u[6,5] r[0,2] r[0,3]
 r[0,5] r[0,6] r[1,2] r[1,3] r[1,4] r[1,6] r[2,0] r[2,1] r[2,3] r[2,4]
 r[2,5] r[2,6] r[3,0] r[3,1] r[3,2] r[3,4] r[3,5] r[3,6] r[4,1] r[4,2]
 r[4,3] r[4,6] r[5,0] r[5,2] r[5,3] r[5,6] r[6,0] r[6,1] r[6,2] r[6,3]
 r[6,4] r[6,5]
End
